
Gurobi 6.0.4 (win64) logging started 06/21/15 19:09:44

Read LP format model from file C:\MT\repository\VRPTWMS\instances\mip\fuel\N6-C_DV100-C_SV30_F6_7_No_1.lp
Reading time = 0.01 seconds
(null): 253 rows, 134 columns, 987 nonzeros
Optimize a model with 253 rows, 134 columns and 987 nonzeros
Model has 252 quadratic constraints
Coefficient statistics:
  Matrix range    [1e+00, 1e+06]
  Objective range [3e+04, 1e+07]
  Bounds range    [1e+00, 1e+06]
  RHS range       [1e+00, 1e+06]
Presolve removed 37 rows and 21 columns
Presolve time: 0.09s
Presolved: 588 rows, 310 columns, 2744 nonzeros
Variable types: 175 continuous, 135 integer (102 binary)
Found heuristic solution: objective 2.127950e+07

Root relaxation: objective 1.308588e+07, 47 iterations, 0.00 seconds

    Nodes    |    Current Node    |     Objective Bounds      |     Work
 Expl Unexpl |  Obj  Depth IntInf | Incumbent    BestBd   Gap | It/Node Time

     0     0 1.3086e+07    0   15 2.1280e+07 1.3086e+07  38.5%     -    0s
     0     0     cutoff    0      2.1280e+07 2.1279e+07  0.00%     -    0s

Cutting planes:
  Gomory: 2
  Cover: 1
  Implied bound: 1
  Clique: 1
  MIR: 3

Explored 0 nodes (80 simplex iterations) in 0.10 seconds
Thread count was 2 (of 4 available processors)

Optimal solution found (tolerance 1.00e-04)
Best objective 2.127950000000e+07, best bound 2.127950000000e+07, gap 0.0%
k_c1	90000.0
k_c2	1000000.0
k_c3	1000000.0
k_c4	70000.0
k_c5	50000.0
k_c6	869998.0
k_dN	-0.0
o_1	-0.0
o_2	-0.0
o_3	-0.0
o_4	-0.0
o_5	-0.0
o_6	-0.0
p_1	-0.0
p_2	-0.0
p_3	-0.0
p_4	-0.0
p_5	-0.0
p_6	-0.0
phi_c1	38920.0
phi_c2	41924.0
phi_c3	45269.0
phi_c4	24951.0
phi_c5	16869.0
phi_c6	23553.0
phi_dN	-0.0
pi_c1	-0.0
pi_c2	-0.0
pi_c3	-0.0
pi_c4	-0.0
pi_c5	263553.0
pi_c6	-0.0
pi_dN	-0.0
tauD_c1	587600.0
tauD_c2	450000.0
tauD_c3	100000.0
tauD_c4	699800.0
tauD_c5	800000.0
tauD_c6	600000.0
tauD_d0	-0.0
tauD_dN	1000000.0
tauS_c1	826050.0
tauS_c2	15050.0
tauS_c3	848275.0
tauS_c4	-0.0
tauS_c5	-0.0
tauS_c6	-0.0
tauS_d0	-0.0
tauS_dN	241350.0
x_c1_c4	1.0
x_c2_c6	1.0
x_c3_c1	1.0
x_c4_c5	1.0
x_c5_dN	1.0
x_c6_dN	1.0
x_d0_c2	1.0
x_d0_c3	1.0
